;; sat

(declare-const x1 sl.list.loc)
(declare-const x2 sl.list.loc)
(declare-const x3 sl.list.loc)
(declare-const x4 sl.list.loc)
(declare-const x5 sl.list.loc)
(declare-const x6 sl.list.loc)
(declare-const x7 sl.list.loc)
(declare-const x8 sl.list.loc)
(declare-const x9 sl.list.loc)
(declare-const x10 sl.list.loc)
(declare-const x11 sl.list.loc)
(declare-const x12 sl.list.loc)
(declare-const x13 sl.list.loc)
(declare-const x14 sl.list.loc)
(declare-const x15 sl.list.loc)
(declare-const x16 sl.list.loc)

(assert (and (sl.sepcon (sl.list.eq sl.list.null sl.list.null)
 (sl.sepcon (sl.sepcon (sl.sepcon (sl.sepcon (sl.sepcon (sl.sepcon (sl.sepcon (sl.sepcon (sl.sepcon (sl.sepcon (sl.sepcon (sl.sepcon (sl.sepcon (sl.sepcon (sl.sepcon (sl.list.next x10 x15)
 (sl.list.next x4 x12)
)
 (sl.list.next x7 x3)
)
 (sl.list.next x5 x13)
)
 (sl.list.seg x6 x3)
)
 (sl.list.next x16 x4)
)
 (sl.list.next x13 x9)
)
 (sl.list.seg x11 x12)
)
 (sl.list.next x12 x7)
)
 (sl.list.next x14 x6)
)
 (sl.list.next x9 x8)
)
 (sl.list.next x15 x13)
)
 (sl.list.next x1 x3)
)
 (sl.list.next x2 x8)
)
 (sl.list.seg x8 x5)
)
 (sl.list.seg x3 x14)
)
)
 (not (sl.sepcon (sl.sepcon (sl.sepcon (sl.sepcon (sl.sepcon (sl.sepcon (sl.sepcon (sl.list.seg x10 x13)
 (sl.list.seg x16 x12)
)
 (sl.list.seg x11 x7)
)
 (sl.list.seg x6 x3)
)
 (sl.list.seg x7 x3)
)
 (sl.list.seg x1 x6)
)
 (sl.list.seg x2 x5)
)
 (sl.list.seg x5 x8)
)
))
)

